NAME obj
ROWS
 N  OBJ
 G  R0      
 G  R1      
 G  R2      
 G  R3      
 G  R4      
 G  R5      
 G  R6      
 G  R7      
 G  R8      
 G  R9      
 G  R10     
 G  R11     
 G  R12     
 G  R13     
 G  R14     
COLUMNS
    X0        OBJ       1
    X0        R0        1
    X0        R1        1
    X0        R5        1
    X1        OBJ       1
    X1        R0        1
    X1        R2        1
    X1        R6        1
    X2        OBJ       1
    X2        R0        1
    X2        R3        1
    X2        R7        1
    X3        OBJ       1
    X3        R0        1
    X3        R4        1
    X3        R8        1
    X4        OBJ       1
    X4        R1        1
    X4        R2        1
    X4        R9        1
    X5        OBJ       1
    X5        R1        1
    X5        R3        1
    X5        R10       1
    X6        OBJ       1
    X6        R1        1
    X6        R4        1
    X6        R11       1
    X7        OBJ       1
    X7        R2        1
    X7        R3        1
    X7        R12       1
    X8        OBJ       1
    X8        R2        1
    X8        R4        1
    X8        R13       1
    X9        OBJ       1
    X9        R3        1
    X9        R4        1
    X9        R14       1
    X10       OBJ       1
    X10       R5        1
    X10       R6        1
    X10       R9        1
    X11       OBJ       1
    X11       R5        1
    X11       R7        1
    X11       R10       1
    X12       OBJ       1
    X12       R5        1
    X12       R8        1
    X12       R11       1
    X13       OBJ       1
    X13       R6        1
    X13       R7        1
    X13       R12       1
    X14       OBJ       1
    X14       R6        1
    X14       R8        1
    X14       R13       1
    X15       OBJ       1
    X15       R7        1
    X15       R8        1
    X15       R14       1
    X16       OBJ       1
    X16       R9        1
    X16       R10       1
    X16       R12       1
    X17       OBJ       1
    X17       R9        1
    X17       R11       1
    X17       R13       1
    X18       OBJ       1
    X18       R10       1
    X18       R11       1
    X18       R14       1
    X19       OBJ       1
    X19       R12       1
    X19       R13       1
    X19       R14       1
RHS
    RHS1      R0        1
    RHS1      R1        1
    RHS1      R2        1
    RHS1      R3        1
    RHS1      R4        1
    RHS1      R5        1
    RHS1      R6        1
    RHS1      R7        1
    RHS1      R8        1
    RHS1      R9        1
    RHS1      R10       1
    RHS1      R11       1
    RHS1      R12       1
    RHS1      R13       1
    RHS1      R14       1
BOUNDS
 UP BND1      X0        1
 UP BND1      X1        1
 UP BND1      X2        1
 UP BND1      X3        1
 UP BND1      X4        1
 UP BND1      X5        1
 UP BND1      X6        1
 UP BND1      X7        1
 UP BND1      X8        1
 UP BND1      X9        1
 UP BND1      X10       1
 UP BND1      X11       1
 UP BND1      X12       1
 UP BND1      X13       1
 UP BND1      X14       1
 UP BND1      X15       1
 UP BND1      X16       1
 UP BND1      X17       1
 UP BND1      X18       1
 UP BND1      X19       1
ENDATA
